coords = array2d(1..53, 1..2, [186, 667, 698, 194, 418, 770, 282, 695, 444,
    708, 222, 829, 909, 77, 485, 376, 349, 456, 456, 722, 962, 883,
    137, 51, 670, 591, 177, 642, 987, 532, 795, 569, 146, 377, 399,
    643, 167, 131, 332, 719, 154, 137, 595, 576, 308, 633, 466, 857,
    461, 701, 773, 81, 892, 988, 335, 640, 465, 522, 346, 359, 355,
    94, 568, 799, 671, 946, 550, 789, 30, 839, 770, 401, 409, 354,
    194, 231, 551, 588, 946, 562, 222, 714, 611, 530, 963, 59, 289,
    380, 161, 963, 506, 845, 272, 330, 426, 831, 752, 244, 706, 152,
    51, 252, 511, 923, 810, 57]);

n = 53;

